StringID   Type       x          y          demand     ReadyTime  DueDate    ServiceTime
D0         d              37.464    85.640      0.000      0.000     23.983      0.000
S0         f              37.464    85.640      0.000      0.000     23.983      0.000
S1         f              73.020    42.400      0.000      0.000     23.983      0.000
S2         f              22.670    92.160      0.000      0.000     23.983      0.000
C0         c              82.620    91.617      0.049     11.570     12.071      0.074
C1         c              13.545    32.093      0.034     13.663     14.211      0.067
C2         c              46.116    27.176      0.097     13.029     13.577      0.098
C3         c              35.853     7.684      0.041     12.735     13.239      0.071
C4         c              47.001    70.449      0.085     14.702     15.280      0.093

Q Vehicle fuel tank capacity /125.9600/
C Vehicle load capacity /1.0000/
r fuel consumption rate /0.4799/
g inverse refueling rate /0.0073/
v average Velocity /32.6000/
gv charging speed /136.1000/

--------------------
instance_id /975/
number of clusters /6/
working_startTime (hour) /8.00/
working_endTime (hour) /20.98/
instance_endTime (hour) /23.98/
service_time_type /cargoweight/
demand_type /random/
instance_type /C/
instance x range /[0.0, 100.0]/
instance y range /[0.0, 100.0]/
cs_time_to_depot (hour)/[1.7172234863110711,0.4959211438045823]/
